3493
3471
3484
3486
3489
3491
3495
3497
3513
3514
3526
3473
3490
3481
3503
3478
3496
3494
3496
3512
3508
3503
3506
3508
3493
3473
3502
3489
3497
3487
3488
3496
3492
3492
3483
3467
3490
3498
3497
3501
3486
3483
3505
3518
3520
3513
3522
3530
3498
3508
3513
3518
3523
3524
3509
3506
3536
3499
3497
3494
3498
3479
3504
3512
3514
3511
3513
3500
3510
3491
3500
3520
3516
3511
3493
3550
3522
3523
3510
3510
3496
3494
3503
3521
3518
3523
3519
3504
3489
3508
3516
3505
3500
3507
3501
3506
3508
3497
3483
3496
3491
3486
3481
3513
3507
3526
3530
3518
3519
3512
3492
3502
3512
3519
3516
3519
3515
